computational_data/solutions/ER_n30_p035_s5.sol
Optimal - objective value 7.00000000
     10 r_10                        1                       1
     23 r_23                        1                       1
     26 r_26                        1                       1
     28 r_28                        1                       1
     31 b_1                         1                       1
     38 b_8                         1                       1
     59 b_29                        1                       1
